Gurobi Optimizer version 9.1.0 build v9.1.0rc0 (linux64)
Thread count: 8 physical cores, 16 logical processors, using up to 16 threads
Optimize a model with 415466 rows, 400800 columns and 2301950 nonzeros
Model fingerprint: 0x3041d2c6
Variable types: 0 continuous, 400800 integer (400800 binary)
Coefficient statistics:
  Matrix range     [1e+00, 1e+00]
  Objective range  [1e+01, 1e+05]
  Bounds range     [1e+00, 1e+00]
  RHS range        [1e+00, 1e+03]
Presolve removed 6050 rows and 50 columns (presolve time = 7s) ...
Presolve added 0 rows and 5950 columns
Presolve removed 50 rows and 0 columns
Presolve time: 9.00s
Presolved: 415416 rows, 406750 columns, 1719850 nonzeros
Variable types: 0 continuous, 406750 integer (406750 binary)
Found heuristic solution: objective 665720.00000

Concurrent LP optimizer: primal simplex, dual simplex, and barrier
Showing barrier log only...

Root barrier log...

Ordering time: 0.14s

Barrier statistics:
 Dense cols : 400
 AA' NZ     : 1.332e+06
 Factor NZ  : 5.533e+06 (roughly 400 MBytes of memory)
 Factor Ops : 1.335e+09 (less than 1 second per iteration)
 Threads    : 6

                  Objective                Residual
Iter       Primal          Dual         Primal    Dual     Compl     Time
   0   5.37181798e+08 -7.76283814e+08  6.16e+02 2.93e+01  2.85e+04    20s
   1   3.55074205e+06 -7.78349659e+08  1.88e+01 1.96e+04  1.01e+03    20s
   2   1.79288461e+06 -1.85089268e+08  7.24e+00 3.17e+03  2.66e+02    21s
   3   9.77399297e+05 -8.48651887e+07  1.88e+00 1.05e+03  9.15e+01    22s
   4   7.13984441e+05 -7.34915936e+06  1.79e-01 6.12e+01  6.96e+00    23s
   5   6.65466487e+05 -8.48504354e+05  5.23e-02 1.05e+01  1.25e+00    23s
   6   6.20848178e+05  1.16342275e+05  2.85e-02 2.75e+00  4.13e-01    24s
   7   5.98063149e+05  3.17690654e+05  2.14e-02 1.25e+00  2.28e-01    25s
   8   5.83408569e+05  3.92613866e+05  1.82e-02 7.20e-01  1.55e-01    26s
   9   5.79594266e+05  4.16357103e+05  1.74e-02 5.38e-01  1.32e-01    27s
  10   5.69981237e+05  4.34874450e+05  1.53e-02 3.96e-01  1.09e-01    27s
  11   5.61471990e+05  4.48316837e+05  1.38e-02 2.90e-01  9.14e-02    28s
  12   5.54159668e+05  4.58658517e+05  1.25e-02 2.17e-01  7.70e-02    29s
  13   5.46368776e+05  4.67604929e+05  1.11e-02 1.50e-01  6.34e-02    30s
  14   5.43499786e+05  4.71715169e+05  1.06e-02 1.22e-01  5.77e-02    31s
  15   5.37530205e+05  4.75204201e+05  9.42e-03 9.40e-02  5.01e-02    32s
  16   5.31311263e+05  4.78358678e+05  8.38e-03 6.89e-02  4.25e-02    34s
  17   5.26462669e+05  4.80111712e+05  7.48e-03 5.54e-02  3.72e-02    35s
  18   5.21309209e+05  4.81568509e+05  6.54e-03 4.56e-02  3.19e-02    36s
  19   5.19753306e+05  4.82516024e+05  6.29e-03 3.82e-02  2.98e-02    37s
  20   5.15897313e+05  4.83181809e+05  5.60e-03 3.35e-02  2.62e-02    38s
  21   5.11449327e+05  4.84094444e+05  4.75e-03 2.71e-02  2.19e-02    39s
  22   5.06939916e+05  4.84493292e+05  3.91e-03 2.38e-02  1.80e-02    40s
  23   5.04150725e+05  4.84754264e+05  3.36e-03 2.19e-02  1.55e-02    41s
  24   5.03069808e+05  4.85079467e+05  3.15e-03 1.98e-02  1.44e-02    42s
  25   5.01723688e+05  4.85709720e+05  2.89e-03 1.56e-02  1.28e-02    43s
  26   5.00584159e+05  4.86218125e+05  2.66e-03 1.21e-02  1.15e-02    44s
  27   4.99285852e+05  4.86382517e+05  2.40e-03 1.08e-02  1.03e-02    45s
  28   4.97744487e+05  4.86550379e+05  2.09e-03 9.83e-03  8.95e-03    46s
  29   4.96935684e+05  4.86630882e+05  1.93e-03 9.24e-03  8.24e-03    47s
  30   4.95677984e+05  4.86821841e+05  1.68e-03 7.83e-03  7.08e-03    47s
  31   4.95051766e+05  4.86943335e+05  1.55e-03 6.95e-03  6.48e-03    48s
  32   4.94817215e+05  4.87036171e+05  1.50e-03 6.26e-03  6.22e-03    49s
  33   4.93667324e+05  4.87125361e+05  1.27e-03 5.59e-03  5.23e-03    50s
  34   4.92942735e+05  4.87284331e+05  1.13e-03 4.44e-03  4.52e-03    51s
  35   4.92037470e+05  4.87419522e+05  9.32e-04 3.66e-03  3.69e-03    52s
  36   4.91651897e+05  4.87534343e+05  8.53e-04 2.90e-03  3.28e-03    53s
  37   4.91426288e+05  4.87550185e+05  8.06e-04 2.80e-03  3.09e-03    53s
  38   4.90984624e+05  4.87593822e+05  7.08e-04 2.69e-03  2.70e-03    54s
  39   4.90649049e+05  4.87638534e+05  6.31e-04 2.35e-03  2.40e-03    55s
  40   4.90275692e+05  4.87673219e+05  5.52e-04 2.08e-03  2.07e-03    56s
  41   4.89955079e+05  4.87716058e+05  4.82e-04 1.83e-03  1.78e-03    57s
  42   4.89744782e+05  4.87771834e+05  4.33e-04 1.40e-03  1.57e-03    58s
  43   4.89557405e+05  4.87804216e+05  3.92e-04 1.13e-03  1.40e-03    58s
  44   4.89364568e+05  4.87825715e+05  3.47e-04 9.90e-04  1.22e-03    59s
  45   4.89254260e+05  4.87849824e+05  3.20e-04 7.82e-04  1.12e-03    60s
  46   4.89084277e+05  4.87862980e+05  2.83e-04 6.70e-04  9.71e-04    61s
  47   4.88869602e+05  4.87879097e+05  2.34e-04 5.26e-04  7.87e-04    62s
  48   4.88698450e+05  4.87885259e+05  1.94e-04 4.78e-04  6.46e-04    62s
  49   4.88583409e+05  4.87893661e+05  1.65e-04 4.05e-04  5.48e-04    63s
  50   4.88503527e+05  4.87907866e+05  1.46e-04 3.00e-04  4.73e-04    64s
  51   4.88429681e+05  4.87912924e+05  1.27e-04 2.58e-04  4.10e-04    65s
  52   4.88340938e+05  4.87917932e+05  1.06e-04 2.18e-04  3.36e-04    66s
  53   4.88308024e+05  4.87925755e+05  9.72e-05 1.62e-04  3.03e-04    66s
  54   4.88243968e+05  4.87928599e+05  8.10e-05 1.34e-04  2.50e-04    67s
  55   4.88208469e+05  4.87930235e+05  7.16e-05 1.18e-04  2.20e-04    68s
  56   4.88155339e+05  4.87932616e+05  5.71e-05 9.84e-05  1.77e-04    69s
  57   4.88128839e+05  4.87934243e+05  4.99e-05 8.58e-05  1.54e-04    70s
  58   4.88121701e+05  4.87934997e+05  4.80e-05 8.06e-05  1.48e-04    71s
  59   4.88104392e+05  4.87937818e+05  4.33e-05 6.25e-05  1.32e-04    71s
  60   4.88084948e+05  4.87939156e+05  3.82e-05 5.13e-05  1.15e-04    72s
  61   4.88062307e+05  4.87940640e+05  3.25e-05 4.00e-05  9.63e-05    73s
  62   4.88046538e+05  4.87942944e+05  2.81e-05 2.67e-05  8.20e-05    74s
  63   4.88031951e+05  4.87943866e+05  2.41e-05 2.11e-05  6.97e-05    75s
  64   4.88027190e+05  4.87944054e+05  2.27e-05 1.95e-05  6.57e-05    76s
  65   4.88015900e+05  4.87944777e+05  1.98e-05 1.39e-05  5.62e-05    76s
  66   4.87996196e+05  4.87945133e+05  1.41e-05 1.12e-05  4.04e-05    77s
  67   4.87988090e+05  4.87945651e+05  1.18e-05 8.59e-06  3.35e-05    78s
  68   4.87984671e+05  4.87945876e+05  1.09e-05 7.49e-06  3.07e-05    79s
  69   4.87978211e+05  4.87946077e+05  9.11e-06 6.19e-06  2.54e-05    80s
  70   4.87969849e+05  4.87946234e+05  6.81e-06 4.56e-06  1.86e-05    80s
  71   4.87960393e+05  4.87946558e+05  3.92e-06 2.90e-06  1.09e-05    81s
  72   4.87958360e+05  4.87946846e+05  3.35e-06 1.87e-06  9.09e-06    82s
  73   4.87957194e+05  4.87946998e+05  3.04e-06 1.30e-06  8.04e-06    83s
  74   4.87956063e+05  4.87947077e+05  2.70e-06 1.00e-06  7.08e-06    84s
  75   4.87954568e+05  4.87947122e+05  2.24e-06 7.95e-07  5.87e-06    84s
  76   4.87952673e+05  4.87947159e+05  1.70e-06 6.28e-07  4.34e-06    85s
  77   4.87950419e+05  4.87947186e+05  9.72e-07 5.44e-07  2.55e-06    86s
  78   4.87949008e+05  4.87947278e+05  5.16e-07 2.58e-07  1.36e-06    87s
  79   4.87947556e+05  4.87947323e+05  5.65e-08 1.08e-07  1.85e-07    87s
  80   4.87947467e+05  4.87947357e+05  3.00e-08 8.60e-08  8.72e-08    88s
  81   4.87947462e+05  4.87947358e+05  2.84e-08 7.96e-08  8.25e-08    88s
  82   4.87947462e+05  4.87947358e+05  2.84e-08 7.93e-08  8.23e-08    89s
  83   4.87947459e+05  4.87947358e+05  2.77e-08 7.77e-08  8.06e-08    90s
  84   4.87947458e+05  4.87947358e+05  2.72e-08 1.05e-08  7.91e-08    90s
  85   4.87947457e+05  4.87947358e+05  2.71e-08 1.02e-08  7.87e-08    91s
  86   4.87947449e+05  4.87947358e+05  2.47e-08 1.27e-08  7.21e-08    92s
  87   4.87947447e+05  4.87947358e+05  2.42e-08 9.85e-09  7.05e-08    92s
  88   4.87947447e+05  4.87947358e+05  2.42e-08 9.85e-09  7.05e-08    93s
  89   4.87947447e+05  4.87947358e+05  2.42e-08 9.79e-09  7.05e-08    94s
  90   4.87947446e+05  4.87947358e+05  2.37e-08 9.77e-09  6.91e-08    95s
  91   4.87947445e+05  4.87947358e+05  2.36e-08 9.46e-09  6.88e-08    96s
  92   4.87947445e+05  4.87947358e+05  2.36e-08 9.31e-09  6.86e-08    97s
  93   4.87947445e+05  4.87947358e+05  2.35e-08 9.15e-09  6.83e-08    98s
  94   4.87947445e+05  4.87947358e+05  2.34e-08 9.15e-09  6.83e-08    99s
  95   4.87947444e+05  4.87947358e+05  2.34e-08 9.12e-09  6.81e-08   100s
  96   4.87947444e+05  4.87947358e+05  2.34e-08 9.12e-09  6.81e-08   101s

Barrier performed 96 iterations in 100.64 seconds
Sub-optimal termination - objective 4.87947445e+05


Root crossover log...

  249412 DPushes remaining with DInf 0.0000000e+00               101s
    2150 DPushes remaining with DInf 0.0000000e+00               106s
       0 DPushes remaining with DInf 0.0000000e+00               110s

    2038 PPushes remaining with PInf 2.3919806e-05               110s
       0 PPushes remaining with PInf 0.0000000e+00               111s

  Push phase complete: Pinf 0.0000000e+00, Dinf 5.5892269e-10    111s


Root simplex log...

Iteration    Objective       Primal Inf.    Dual Inf.      Time
   39512    4.8794736e+05   0.000000e+00   0.000000e+00    111s
   39512    4.8794736e+05   0.000000e+00   0.000000e+00    111s

Solved with barrier

Root relaxation: objective 4.879474e+05, 39512 iterations, 94.65 seconds
Total elapsed time = 115.77s

    Nodes    |    Current Node    |     Objective Bounds      |     Work
 Expl Unexpl |  Obj  Depth IntInf | Incumbent    BestBd   Gap | It/Node Time

     0     0 487947.362    0 28669 665720.000 487947.362  26.7%     -  119s
H    0     0                    513069.00000 487947.362  4.90%     -  132s
H    0     0                    510800.00000 487947.362  4.47%     -  137s
     0     0 487949.653    0 28623 510800.000 487949.653  4.47%     -  174s
     0     0 487949.934    0 28668 510800.000 487949.934  4.47%     -  286s

Cutting planes:
  Gomory: 2

Explored 1 nodes (45301 simplex iterations) in 300.37 seconds
Thread count was 16 (of 16 available processors)

Solution count 3: 510800 513069 665720 

Time limit reached
Best objective 5.108000000000e+05, best bound 4.879500000000e+05, gap 4.4734%

User-callback calls 31370, time in user-callback 0.46 sec
['/opt/local/stow/gurobi910/linux64/lib/libgurobi91.so']
Result: runtime=286.78sec; objective=510800
Solution written to /autofs/unityaccount/cremi/mdeboute/Bureau/multi-period-flp/solution/instSingle_I50_J1000_T8_0_result.txt
